
se = 40; % nombre de sessions
gr = 20; % nombre de grups de treball
cl = 7; % nombre de slots
minPapersPerSlot = 3; % minim nombre d'articles per sessio i slot
maxSesionsPar = 14; % maxim nombre de sessions paraleles

npMax = [4, 5, 4, 3, 5, 6, 4]; % nombre maxim de papers per slot

np = [6, 14, 9, 3, 3, 13, 3, 12, 3, 3, 3, 6, 12, 15, 19, 6, 10, 12, 14, 6, 14, 6, 7, 5, 3, 3, 7, 3, 10, 3, 7, 10, 4, 5, 3, 12, 17, 6, 3, 3]; % nombre de papers acceptats a cada sessio

WG = [ {1}, {}, {2}, {3}, {4}, {5}, {6,7}, {}, {8,9}, {10}, {11,12,13}, {14,15}, {16}, {17,18}, {19,20,1}, {2}, {3}, {4}, {5,6,7}, {}, {8}, {9}, {10}, {}, {}, {11}, {12,13,14}, {15,16,17}, {18,19,20}, {}, {1}, {}, {}, {2}, {3}, {4}, {5}, {6}, {7}, {} ]; % grups per sessio

